NAME : single
TYPE : ATSP
DIMENSION : 8
EDGE_WEIGHT_TYPE : EXPLICIT
EDGE_WEIGHT_FORMAT : FULL_MATRIX
EDGE_WEIGHT_SECTION
0 600 200 200 300 400 400 500 
0 0 200 300 500 600 600 700 
0 200 0 100 300 400 300 400 
0 300 100 0 200 300 200 300 
0 500 300 200 0 100 100 200 
0 600 400 300 100 0 0 0 
0 600 300 200 100 200 0 200 
0 700 400 300 200 300 200 0 
